41954.0
1 0 1 0 1 0 1 1 1 1 1 1 0 1 1 0 1 0 1 1 0 1 1 0 1 1 0 1 1 0 
18 19 21 27 2 6 21 27 22 28 4 28 13 13 28 18 13 10 22 0 18 16 2 24 10 18 27 19 4 2 19 19 4 16 27 6 8 8 24 16 18 9 6 4 8 19 13 21 19 14 24 16 24 16 8 6 11 9 18 25 4 0 7 8 13 11 2 14 28 25 18 6 19 9 10 13 10 10 8 16 10 0 9 25 4 13 6 2 27 7 28 6 25 25 2 13 11 6 0 28 28 21 25 18 4 0 4 24 22 13 19 4 27 6 11 8 28 7 14 8 9 11 28 19 9 16 2 11 19 0 28 24 25 10 13 9 13 13 28 10 11 22 11 11 25 2 24 21 27 25 24 0 10 0 8 11 2 16 13 13 13 27 10 24 10 27 2 4 13 21 13 8 19 14 4 2 0 10 4 10 2 21 2 19 11 8 28 10 0 21 2 21 6 4 7 6 7 21 10 19 